c map6.map
p cnf 288 555
-3 -4 0
-3 -5 0
-4 -5 0
-1 -2 0
-2 -5 0
-1 -4 0
-5 1 0
-4 2 0
-39 -40 0
-39 -41 0
-40 -41 0
-37 -38 0
-38 -41 0
-37 -40 0
-41 37 0
-40 38 0
-75 -76 0
-75 -77 0
-76 -77 0
-73 -74 0
-74 -77 0
-73 -76 0
-77 73 0
-76 74 0
-111 -112 0
-111 -113 0
-112 -113 0
-109 -110 0
-110 -113 0
-109 -112 0
-113 109 0
-112 110 0
-147 -148 0
-147 -149 0
-148 -149 0
-145 -146 0
-146 -149 0
-145 -148 0
-149 145 0
-148 146 0
-183 -184 0
-183 -185 0
-184 -185 0
-181 -182 0
-182 -185 0
-181 -184 0
-185 181 0
-184 182 0
-219 -220 0
-219 -221 0
-220 -221 0
-217 -218 0
-218 -221 0
-217 -220 0
-221 217 0
-220 218 0
-255 -256 0
-255 -257 0
-256 -257 0
-253 -254 0
-254 -257 0
-253 -256 0
-257 253 0
-256 254 0
-9 -10 0
-9 -11 0
-10 -11 0
-7 -8 0
-8 -11 0
-7 -10 0
-11 7 0
-10 8 0
-45 -46 0
-45 -47 0
-46 -47 0
-43 -44 0
-44 -47 0
-43 -46 0
-47 43 0
-46 44 0
-81 -82 0
-81 -83 0
-82 -83 0
-79 -80 0
-80 -83 0
-79 -82 0
-83 79 0
-82 80 0
-117 -118 0
-117 -119 0
-118 -119 0
-115 -116 0
-116 -119 0
-115 -118 0
-119 115 0
-118 116 0
-153 -154 0
-153 -155 0
-154 -155 0
-151 -152 0
-152 -155 0
-151 -154 0
-155 151 0
-154 152 0
-189 -190 0
-189 -191 0
-190 -191 0
-187 -188 0
-188 -191 0
-187 -190 0
-191 187 0
-190 188 0
-225 -226 0
-225 -227 0
-226 -227 0
-223 -224 0
-224 -227 0
-223 -226 0
-227 223 0
-226 224 0
-261 -262 0
-261 -263 0
-262 -263 0
-259 -260 0
-260 -263 0
-259 -262 0
-263 259 0
-262 260 0
-15 -16 0
-15 -17 0
-16 -17 0
-13 -14 0
-14 -17 0
-13 -16 0
-17 13 0
-16 14 0
-51 -52 0
-51 -53 0
-52 -53 0
-49 -50 0
-50 -53 0
-49 -52 0
-53 49 0
-52 50 0
-87 -88 0
-87 -89 0
-88 -89 0
-85 -86 0
-86 -89 0
-85 -88 0
-89 85 0
-88 86 0
-123 -124 0
-123 -125 0
-124 -125 0
-121 -122 0
-122 -125 0
-121 -124 0
-125 121 0
-124 122 0
-159 -160 0
-159 -161 0
-160 -161 0
-157 -158 0
-158 -161 0
-157 -160 0
-161 157 0
-160 158 0
-195 -196 0
-195 -197 0
-196 -197 0
-193 -194 0
-194 -197 0
-193 -196 0
-197 193 0
-196 194 0
-231 -232 0
-231 -233 0
-232 -233 0
-229 -230 0
-230 -233 0
-229 -232 0
-233 229 0
-232 230 0
-267 -268 0
-267 -269 0
-268 -269 0
-265 -266 0
-266 -269 0
-265 -268 0
-269 265 0
-268 266 0
-21 -22 0
-21 -23 0
-22 -23 0
-19 -20 0
-20 -23 0
-19 -22 0
-23 19 0
-22 20 0
-57 -58 0
-57 -59 0
-58 -59 0
-55 -56 0
-56 -59 0
-55 -58 0
-59 55 0
-58 56 0
-93 -94 0
-93 -95 0
-94 -95 0
-91 -92 0
-92 -95 0
-91 -94 0
-95 91 0
-94 92 0
-129 -130 0
-129 -131 0
-130 -131 0
-127 -128 0
-128 -131 0
-127 -130 0
-131 127 0
-130 128 0
-165 -166 0
-165 -167 0
-166 -167 0
-163 -164 0
-164 -167 0
-163 -166 0
-167 163 0
-166 164 0
-201 -202 0
-201 -203 0
-202 -203 0
-199 -200 0
-200 -203 0
-199 -202 0
-203 199 0
-202 200 0
-237 -238 0
-237 -239 0
-238 -239 0
-235 -236 0
-236 -239 0
-235 -238 0
-239 235 0
-238 236 0
-273 -274 0
-273 -275 0
-274 -275 0
-271 -272 0
-272 -275 0
-271 -274 0
-275 271 0
-274 272 0
-27 -28 0
-27 -29 0
-28 -29 0
-25 -26 0
-26 -29 0
-25 -28 0
-29 25 0
-28 26 0
-63 -64 0
-63 -65 0
-64 -65 0
-61 -62 0
-62 -65 0
-61 -64 0
-65 61 0
-64 62 0
-99 -100 0
-99 -101 0
-100 -101 0
-97 -98 0
-98 -101 0
-97 -100 0
-101 97 0
-100 98 0
-135 -136 0
-135 -137 0
-136 -137 0
-133 -134 0
-134 -137 0
-133 -136 0
-137 133 0
-136 134 0
-171 -172 0
-171 -173 0
-172 -173 0
-169 -170 0
-170 -173 0
-169 -172 0
-173 169 0
-172 170 0
-207 -208 0
-207 -209 0
-208 -209 0
-205 -206 0
-206 -209 0
-205 -208 0
-209 205 0
-208 206 0
-243 -244 0
-243 -245 0
-244 -245 0
-241 -242 0
-242 -245 0
-241 -244 0
-245 241 0
-244 242 0
-279 -280 0
-279 -281 0
-280 -281 0
-277 -278 0
-278 -281 0
-277 -280 0
-281 277 0
-280 278 0
-33 -34 0
-33 -35 0
-34 -35 0
-31 -32 0
-32 -35 0
-31 -34 0
-35 31 0
-34 32 0
-69 -70 0
-69 -71 0
-70 -71 0
-67 -68 0
-68 -71 0
-67 -70 0
-71 67 0
-70 68 0
-105 -106 0
-105 -107 0
-106 -107 0
-103 -104 0
-104 -107 0
-103 -106 0
-107 103 0
-106 104 0
-141 -142 0
-141 -143 0
-142 -143 0
-139 -140 0
-140 -143 0
-139 -142 0
-143 139 0
-142 140 0
-177 -178 0
-177 -179 0
-178 -179 0
-175 -176 0
-176 -179 0
-175 -178 0
-179 175 0
-178 176 0
-213 -214 0
-213 -215 0
-214 -215 0
-211 -212 0
-212 -215 0
-211 -214 0
-215 211 0
-214 212 0
-249 -250 0
-249 -251 0
-250 -251 0
-247 -248 0
-248 -251 0
-247 -250 0
-251 247 0
-250 248 0
-285 -286 0
-285 -287 0
-286 -287 0
-283 -284 0
-284 -287 0
-283 -286 0
-287 283 0
-286 284 0
-3 0
-4 0
-5 0
-4 0
-5 0
-3 0
-4 0
-5 0
-3 0
1 0
-2 0
-39 0
-9 0
-45 0
-40 0
-10 0
-46 0
-41 0
-11 0
-47 0
37 0
-38 0
7 0
-8 0
43 0
-44 0
-47 0
-45 0
-46 0
-47 0
-45 0
-3 -39 0
-3 -75 0
-3 -9 0
-3 -81 0
-3 -15 0
-3 -51 0
-3 -87 0
-39 -75 0
-39 -9 0
-39 -81 0
-39 -15 0
-39 -51 0
-39 -87 0
-75 -9 0
-75 -81 0
-75 -15 0
-75 -51 0
-75 -87 0
-9 -81 0
-9 -15 0
-9 -51 0
-9 -87 0
-81 -15 0
-81 -51 0
-81 -87 0
-15 -51 0
-15 -87 0
-51 -87 0
3 39 75 9 81 15 51 87 0
-4 -40 0
-4 -76 0
-4 -10 0
-4 -82 0
-4 -16 0
-4 -52 0
-4 -88 0
-40 -76 0
-40 -10 0
-40 -82 0
-40 -16 0
-40 -52 0
-40 -88 0
-76 -10 0
-76 -82 0
-76 -16 0
-76 -52 0
-76 -88 0
-10 -82 0
-10 -16 0
-10 -52 0
-10 -88 0
-82 -16 0
-82 -52 0
-82 -88 0
-16 -52 0
-16 -88 0
-52 -88 0
4 40 76 10 82 16 52 88 0
-5 -41 -77 0
-5 -41 -11 0
-5 -41 -83 0
-5 -41 -17 0
-5 -41 -53 0
-5 -41 -89 0
-5 -77 -11 0
-5 -77 -83 0
-5 -77 -17 0
-5 -77 -53 0
-5 -77 -89 0
-5 -11 -83 0
-5 -11 -17 0
-5 -11 -53 0
-5 -11 -89 0
-5 -83 -17 0
-5 -83 -53 0
-5 -83 -89 0
-5 -17 -53 0
-5 -17 -89 0
-5 -53 -89 0
-41 -77 -11 0
-41 -77 -83 0
-41 -77 -17 0
-41 -77 -53 0
-41 -77 -89 0
-41 -11 -83 0
-41 -11 -17 0
-41 -11 -53 0
-41 -11 -89 0
-41 -83 -17 0
-41 -83 -53 0
-41 -83 -89 0
-41 -17 -53 0
-41 -17 -89 0
-41 -53 -89 0
-77 -11 -83 0
-77 -11 -17 0
-77 -11 -53 0
-77 -11 -89 0
-77 -83 -17 0
-77 -83 -53 0
-77 -83 -89 0
-77 -17 -53 0
-77 -17 -89 0
-77 -53 -89 0
-11 -83 -17 0
-11 -83 -53 0
-11 -83 -89 0
-11 -17 -53 0
-11 -17 -89 0
-11 -53 -89 0
-83 -17 -53 0
-83 -17 -89 0
-83 -53 -89 0
-17 -53 -89 0
41 77 11 83 17 53 89 0
5 77 11 83 17 53 89 0
5 41 11 83 17 53 89 0
5 41 77 83 17 53 89 0
5 41 77 11 17 53 89 0
5 41 77 11 83 53 89 0
5 41 77 11 83 17 89 0
5 41 77 11 83 17 53 0
73 0
-74 0
79 0
-80 0
13 0
-14 0
49 0
-50 0
85 0
-86 0
-88 0
-87 0
-88 0
-89 0
-87 0
